data;

set A := 694 766 164 220 924 980 752 352 964 250 182 594 678 456 580 682 420 616 664 900 98 906 844 350 804 754 600 742 326 298 270 772 758 268 372 846 502 642 30 638 460 740 532 696;
param T := 11000;

end;
